DIMACS2
80 131 59 66 31 49 224 173 148 52 196 219 220 111 153 65 34 98 171 245 135 53 272 115 191 230 309 306 126 40 231 114 208 284 23 278 287 78 76 13 5 54 110 29 227 127 71 0 269 175 181 32 293 234 20 157 61 35 8 81 238 318 118 159 69 184 112 103 271 206 155 299 46 57 248 294 99 258 101 96 215
p edge 320 690
e 0 70 27.0
e 0 297 25.0
e 0 285 30.0
e 0 52 13.0
e 0 159 10.0
e 0 243 48.0
e 1 205 1.0
e 1 0 34.0
e 2 178 2.0
e 3 81 8.0
e 4 316 1.0
e 5 77 46.0
e 5 84 30.0
e 5 237 40.0
e 5 35 7.0
e 5 206 11.0
e 5 26 27.0
e 5 256 21.0
e 5 20 41.0
e 5 115 18.0
e 6 151 1.0
e 7 286 1.0
e 8 308 10.0
e 8 264 28.0
e 8 157 23.0
e 8 61 16.0
e 8 202 9.0
e 8 204 33.0
e 8 105 32.0
e 8 271 13.0
e 9 253 1.0
e 10 166 2.0
e 11 252 1.0
e 12 55 1.0
e 13 265 42.0
e 13 73 19.0
e 13 220 29.0
e 13 231 40.0
e 13 277 36.0
e 13 85 22.0
e 13 230 43.0
e 13 305 32.0
e 13 233 4.0
e 14 222 1.0
e 15 82 1.0
e 16 254 3.0
e 17 158 1.0
e 18 137 1.0
e 19 280 1.0
e 20 310 23.0
e 20 23 24.0
e 20 292 44.0
e 20 66 43.0
e 20 12 27.0
e 20 227 27.0
e 21 268 1.0
e 22 90 2.0
e 23 169 6.0
e 23 49 5.0
e 23 164 8.0
e 23 98 5.0
e 23 306 8.0
e 23 75 22.0
e 24 70 2.0
e 25 102 2.0
e 26 203 1.0
e 27 251 1.0
e 28 255 1.0
e 29 101 33.0
e 29 258 47.0
e 29 110 30.0
e 29 148 27.0
e 29 312 25.0
e 29 139 16.0
e 29 103 39.0
e 29 111 13.0
e 30 251 1.0
e 31 132 42.0
e 31 121 12.0
e 31 118 28.0
e 31 103 7.0
e 31 266 39.0
e 31 269 6.0
e 31 163 36.0
e 31 67 47.0
e 32 96 16.0
e 32 177 21.0
e 32 190 11.0
e 32 215 18.0
e 32 244 26.0
e 32 52 11.0
e 32 86 22.0
e 32 181 24.0
e 32 62 16.0
e 33 158 1.0
e 34 106 14.0
e 34 191 5.0
e 34 15 32.0
e 34 234 31.0
e 34 8 12.0
e 34 140 18.0
e 34 29 17.0
e 34 76 32.0
e 34 146 5.0
e 35 226 37.0
e 35 165 29.0
e 35 241 2.0
e 35 298 27.0
e 35 219 12.0
e 35 122 18.0
e 35 19 37.0
e 36 97 1.0
e 37 177 9.0
e 38 61 29.0
e 39 33 1.0
e 40 168 40.0
e 40 293 11.0
e 40 101 4.0
e 40 42 24.0
e 40 193 46.0
e 40 128 31.0
e 40 147 36.0
e 41 156 1.0
e 42 180 2.0
e 43 129 1.0
e 44 195 1.0
e 45 74 1.0
e 46 289 9.0
e 46 258 44.0
e 46 269 41.0
e 46 48 20.0
e 46 81 36.0
e 46 47 38.0
e 46 272 1.0
e 47 199 1.0
e 48 250 3.0
e 49 228 18.0
e 49 101 49.0
e 49 304 44.0
e 49 277 28.0
e 49 5 1.0
e 49 211 39.0
e 49 238 1.0
e 50 58 2.0
e 51 6 1.0
e 52 279 11.0
e 52 221 39.0
e 52 110 42.0
e 52 200 8.0
e 52 9 47.0
e 52 35 20.0
e 52 245 6.0
e 53 196 37.0
e 53 87 4.0
e 53 110 3.0
e 53 278 28.0
e 53 238 33.0
e 53 167 43.0
e 53 111 4.0
e 53 302 26.0
e 54 201 44.0
e 54 20 19.0
e 54 68 35.0
e 54 307 5.0
e 54 30 32.0
e 54 96 17.0
e 54 118 23.0
e 54 238 22.0
e 54 11 14.0
e 55 229 1.0
e 56 194 1.0
e 57 81 2.0
e 57 234 45.0
e 57 157 6.0
e 57 269 39.0
e 57 13 48.0
e 57 238 17.0
e 57 284 14.0
e 57 171 32.0
e 58 300 1.0
e 59 315 23.0
e 59 152 42.0
e 59 181 24.0
e 59 36 40.0
e 59 111 11.0
e 59 187 24.0
e 59 14 47.0
e 59 246 22.0
e 60 239 1.0
e 61 83 13.0
e 61 299 42.0
e 61 301 13.0
e 61 143 45.0
e 61 110 3.0
e 62 72 2.0
e 63 229 1.0
e 64 213 5.0
e 65 3 25.0
e 65 303 14.0
e 65 101 47.0
e 65 299 21.0
e 65 31 48.0
e 65 57 49.0
e 65 123 13.0
e 65 306 5.0
e 66 196 39.0
e 66 171 12.0
e 66 135 24.0
e 66 269 2.0
e 66 110 13.0
e 66 218 5.0
e 66 53 5.0
e 66 318 6.0
e 67 24 1.0
e 68 276 1.0
e 69 180 49.0
e 69 191 28.0
e 69 32 16.0
e 69 147 43.0
e 69 126 43.0
e 69 34 30.0
e 69 16 19.0
e 70 170 1.0
e 71 156 28.0
e 71 59 39.0
e 71 159 44.0
e 71 240 10.0
e 71 215 23.0
e 71 112 15.0
e 71 306 14.0
e 71 40 30.0
e 71 114 45.0
e 72 95 1.0
e 73 185 1.0
e 74 93 1.0
e 75 43 2.0
e 76 242 34.0
e 76 293 21.0
e 76 206 25.0
e 76 318 15.0
e 76 71 44.0
e 76 269 27.0
e 76 258 30.0
e 77 40 44.0
e 78 151 42.0
e 78 131 17.0
e 78 309 7.0
e 78 173 32.0
e 78 112 43.0
e 78 110 9.0
e 78 258 17.0
e 78 23 13.0
e 78 299 40.0
e 79 27 2.0
e 80 229 1.0
e 81 69 24.0
e 81 76 44.0
e 81 45 21.0
e 81 258 17.0
e 81 133 30.0
e 81 215 22.0
e 82 3 1.0
e 83 3 1.0
e 84 169 1.0
e 85 25 2.0
e 86 259 1.0
e 87 111 5.0
e 88 230 29.0
e 89 25 1.0
e 90 141 1.0
e 91 17 1.0
e 92 148 20.0
e 93 276 1.0
e 94 252 1.0
e 95 20 11.0
e 96 8 5.0
e 96 293 38.0
e 96 78 5.0
e 96 148 6.0
e 96 215 25.0
e 96 65 32.0
e 97 216 1.0
e 98 317 1.0
e 98 206 11.0
e 98 101 29.0
e 98 175 1.0
e 98 258 42.0
e 98 104 27.0
e 98 209 11.0
e 99 258 38.0
e 99 181 42.0
e 99 148 19.0
e 99 144 29.0
e 99 227 19.0
e 99 238 15.0
e 99 223 3.0
e 99 54 43.0
e 99 299 31.0
e 100 177 1.0
e 101 178 39.0
e 101 245 17.0
e 101 110 32.0
e 102 140 2.0
e 103 267 26.0
e 103 220 24.0
e 103 118 29.0
e 103 46 25.0
e 103 96 36.0
e 103 238 8.0
e 104 130 1.0
e 105 274 1.0
e 106 61 18.0
e 107 198 2.0
e 108 245 26.0
e 109 221 5.0
e 110 261 27.0
e 111 231 46.0
e 111 89 32.0
e 111 299 40.0
e 111 148 11.0
e 111 110 16.0
e 112 127 36.0
e 112 215 33.0
e 112 184 45.0
e 112 69 7.0
e 112 196 32.0
e 112 224 29.0
e 113 103 36.0
e 114 311 20.0
e 114 215 9.0
e 114 51 9.0
e 114 49 16.0
e 114 79 44.0
e 114 269 40.0
e 114 313 33.0
e 114 208 39.0
e 115 29 22.0
e 115 215 45.0
e 115 318 12.0
e 115 230 2.0
e 115 0 23.0
e 115 61 41.0
e 115 284 12.0
e 115 131 14.0
e 116 176 2.0
e 117 63 1.0
e 118 272 3.0
e 118 66 11.0
e 118 52 33.0
e 118 81 21.0
e 118 124 44.0
e 118 126 44.0
e 119 181 28.0
e 120 227 16.0
e 121 35 27.0
e 122 58 2.0
e 123 50 2.0
e 124 171 42.0
e 125 39 1.0
e 126 213 31.0
e 126 98 10.0
e 126 247 18.0
e 126 148 35.0
e 126 152 4.0
e 126 127 15.0
e 127 271 10.0
e 127 99 24.0
e 127 281 48.0
e 127 181 38.0
e 127 101 11.0
e 127 155 14.0
e 127 306 2.0
e 128 97 1.0
e 129 90 3.0
e 130 95 1.0
e 131 157 3.0
e 131 318 35.0
e 131 319 35.0
e 131 284 37.0
e 131 206 40.0
e 131 134 42.0
e 131 215 19.0
e 132 308 2.0
e 133 228 5.0
e 134 207 1.0
e 135 61 41.0
e 135 208 31.0
e 135 287 22.0
e 135 103 4.0
e 135 269 40.0
e 135 111 35.0
e 135 181 24.0
e 135 112 4.0
e 136 4 1.0
e 137 94 1.0
e 138 188 1.0
e 139 138 1.0
e 140 278 13.0
e 141 41 1.0
e 142 38 2.0
e 143 282 1.0
e 144 236 1.0
e 145 191 46.0
e 146 236 2.0
e 147 248 45.0
e 148 98 14.0
e 148 173 7.0
e 149 40 8.0
e 150 151 2.0
e 151 88 2.0
e 152 174 2.0
e 153 44 4.0
e 153 171 33.0
e 153 126 40.0
e 153 287 18.0
e 153 318 6.0
e 153 191 6.0
e 153 148 30.0
e 153 192 41.0
e 153 113 28.0
e 154 188 1.0
e 155 27 8.0
e 155 271 39.0
e 155 114 15.0
e 155 115 8.0
e 155 118 24.0
e 155 318 43.0
e 155 306 36.0
e 155 215 4.0
e 156 117 3.0
e 157 172 3.0
e 157 135 27.0
e 157 127 27.0
e 157 230 42.0
e 157 153 10.0
e 158 65 22.0
e 159 10 44.0
e 159 131 25.0
e 159 154 37.0
e 159 318 8.0
e 159 227 8.0
e 159 155 48.0
e 159 157 7.0
e 160 251 2.0
e 161 189 1.0
e 162 273 1.0
e 163 23 23.0
e 164 199 1.0
e 165 95 1.0
e 166 145 2.0
e 167 109 1.0
e 168 236 1.0
e 169 224 31.0
e 170 238 43.0
e 171 90 49.0
e 171 206 32.0
e 171 159 49.0
e 171 173 41.0
e 171 258 7.0
e 172 294 20.0
e 173 267 1.0
e 173 278 31.0
e 173 200 44.0
e 173 175 27.0
e 173 206 16.0
e 173 181 10.0
e 174 59 6.0
e 175 294 15.0
e 175 171 2.0
e 175 200 15.0
e 175 181 38.0
e 175 278 46.0
e 175 182 24.0
e 175 183 23.0
e 176 37 2.0
e 177 299 47.0
e 178 314 2.0
e 179 119 2.0
e 180 91 1.0
e 181 280 10.0
e 182 162 1.0
e 183 210 1.0
e 184 20 19.0
e 184 173 3.0
e 184 186 10.0
e 184 269 30.0
e 184 231 15.0
e 184 258 44.0
e 184 175 16.0
e 184 181 42.0
e 185 280 1.0
e 186 1 1.0
e 187 7 1.0
e 188 275 2.0
e 189 125 1.0
e 190 90 2.0
e 191 238 1.0
e 191 318 18.0
e 191 184 38.0
e 191 196 43.0
e 192 93 1.0
e 193 92 1.0
e 194 157 5.0
e 195 318 13.0
e 196 117 18.0
e 196 197 26.0
e 196 206 2.0
e 196 208 30.0
e 197 23 10.0
e 198 28 1.0
e 199 49 48.0
e 200 284 37.0
e 201 262 2.0
e 202 216 1.0
e 203 56 1.0
e 204 0 17.0
e 205 236 2.0
e 206 101 26.0
e 206 269 21.0
e 207 149 1.0
e 208 110 13.0
e 208 191 37.0
e 208 299 2.0
e 208 284 29.0
e 208 206 13.0
e 209 214 1.0
e 210 160 1.0
e 211 116 1.0
e 212 210 1.0
e 213 235 5.0
e 214 212 1.0
e 215 43 19.0
e 216 126 28.0
e 217 251 1.0
e 218 290 2.0
e 219 158 5.0
e 219 196 48.0
e 219 306 1.0
e 219 208 38.0
e 219 217 3.0
e 219 220 1.0
e 219 224 1.0
e 219 225 2.0
e 220 239 32.0
e 220 231 46.0
e 220 224 30.0
e 220 271 38.0
e 220 227 31.0
e 220 234 30.0
e 221 201 4.0
e 222 208 47.0
e 223 255 1.0
e 224 265 36.0
e 224 227 13.0
e 224 230 22.0
e 225 156 3.0
e 226 296 1.0
e 227 288 22.0
e 227 219 12.0
e 228 41 1.0
e 229 28 1.0
e 230 57 47.0
e 230 220 42.0
e 230 245 17.0
e 231 112 9.0
e 231 224 46.0
e 231 227 11.0
e 231 230 42.0
e 232 259 1.0
e 233 228 3.0
e 234 22 44.0
e 234 231 35.0
e 234 238 34.0
e 234 245 31.0
e 234 248 1.0
e 234 271 15.0
e 235 249 1.0
e 236 7 2.0
e 237 21 1.0
e 238 260 29.0
e 239 232 1.0
e 240 18 1.0
e 241 82 1.0
e 242 44 1.0
e 243 43 2.0
e 244 316 1.0
e 245 58 12.0
e 245 248 38.0
e 245 293 5.0
e 245 271 26.0
e 246 120 3.0
e 247 283 2.0
e 248 160 28.0
e 248 271 43.0
e 248 309 6.0
e 248 272 29.0
e 248 278 25.0
e 248 284 31.0
e 249 224 42.0
e 250 295 1.0
e 251 230 40.0
e 252 263 1.0
e 253 314 1.0
e 254 92 3.0
e 255 316 1.0
e 256 260 1.0
e 257 46 10.0
e 258 136 3.0
e 259 191 47.0
e 260 60 2.0
e 261 31 1.0
e 262 2 2.0
e 263 92 2.0
e 264 150 1.0
e 265 33 1.0
e 266 82 1.0
e 267 2 1.0
e 268 69 23.0
e 269 265 38.0
e 270 179 2.0
e 271 76 36.0
e 271 293 17.0
e 272 252 7.0
e 272 284 16.0
e 272 234 3.0
e 272 299 21.0
e 272 245 48.0
e 272 271 34.0
e 273 80 1.0
e 274 270 1.0
e 275 257 4.0
e 276 291 1.0
e 277 227 14.0
e 278 56 43.0
e 278 272 31.0
e 278 284 44.0
e 278 287 2.0
e 279 97 2.0
e 280 46 41.0
e 281 100 1.0
e 282 224 47.0
e 283 108 1.0
e 284 161 8.0
e 285 267 1.0
e 286 261 1.0
e 287 56 9.0
e 287 248 12.0
e 287 294 41.0
e 287 284 43.0
e 287 306 48.0
e 287 293 42.0
e 288 116 1.0
e 289 88 1.0
e 290 96 37.0
e 291 295 1.0
e 292 277 2.0
e 293 116 24.0
e 293 278 40.0
e 293 294 43.0
e 294 160 5.0
e 294 299 37.0
e 294 306 1.0
e 294 309 9.0
e 295 267 1.0
e 296 306 8.0
e 297 53 41.0
e 298 259 1.0
e 299 283 46.0
e 300 257 1.0
e 301 3 1.0
e 302 151 3.0
e 303 195 1.0
e 304 168 1.0
e 305 148 12.0
e 306 107 48.0
e 307 0 29.0
e 308 161 2.0
e 309 108 14.0
e 309 287 6.0
e 309 293 9.0
e 310 170 1.0
e 311 10 2.0
e 312 64 1.0
e 313 231 27.0
e 314 196 9.0
e 315 43 3.0
e 316 288 2.0
e 317 142 2.0
e 318 117 36.0
e 319 283 1.0
